Cars = 1..200;
Options = 1..5;
Classes = 1..25;
sequenceMinCapacity = [0, 0, 0, 0, 0];
sequenceMaxCapacity = [1, 2, 1, 2, 1];
sequenceSize = [2, 3, 3, 5, 5];
numOrdered = [1, 36, 4, 4, 29, 11, 4, 2, 3, 7, 2, 5, 1, 3, 4, 43, 10, 12, 1, 1, 2, 2, 11, 1, 1];
classHasOption = [| true,  true, false, false,  true
                  |false, false, false,  true, false
                  |false,  true, false, false,  true
                  | true, false, false, false,  true
                  | true, false, false, false, false
                  | true,  true, false, false, false
                  |false, false,  true,  true, false
                  |false, false, false,  true,  true
                  | true, false, false,  true, false
                  |false,  true,  true, false, false
                  |false, false,  true,  true,  true
                  | true,  true,  true, false, false
                  |false,  true,  true,  true,  true
                  |false,  true,  true,  true, false
                  | true, false,  true,  true, false
                  |false,  true, false, false, false
                  |false, false, false, false,  true
                  |false,  true, false,  true, false
                  | true, false,  true, false, false
                  | true,  true,  true, false,  true
                  | true,  true, false,  true, false
                  |false,  true, false,  true,  true
                  |false, false,  true, false, false
                  | true,  true,  true, false, false
                  |false, false,  true, false,  true|];
optionOrdering = [4, 5, 1, 3, 2];
